50
0 2
0 4
0 6
0 10
0 14
0 15
0 18
0 19
0 20
0 21
0 23
0 25
0 28
0 29
0 34
0 35
0 37
0 39
0 45
0 49
1 2
1 3
1 4
1 8
1 11
1 13
1 14
1 15
1 16
1 19
1 20
1 23
1 25
1 26
1 27
1 28
1 29
1 31
1 34
1 35
1 36
1 38
1 40
1 41
1 42
1 43
1 46
1 47
1 48
2 3
2 5
2 7
2 8
2 12
2 15
2 17
2 18
2 21
2 22
2 23
2 27
2 29
2 30
2 31
2 32
2 33
2 36
2 40
2 43
2 47
2 48
2 49
3 4
3 5
3 7
3 9
3 10
3 12
3 13
3 15
3 16
3 17
3 22
3 28
3 29
3 31
3 32
3 33
3 34
3 35
3 39
3 41
3 42
3 43
3 44
3 45
3 47
3 48
4 5
4 8
4 9
4 10
4 11
4 13
4 14
4 15
4 17
4 20
4 21
4 23
4 26
4 28
4 31
4 32
4 33
4 40
4 41
4 43
4 45
4 46
4 47
4 48
5 6
5 7
5 8
5 9
5 10
5 14
5 16
5 17
5 20
5 21
5 22
5 25
5 26
5 28
5 31
5 33
5 37
5 38
5 39
5 46
5 47
5 49
6 10
6 12
6 13
6 16
6 17
6 19
6 21
6 22
6 23
6 26
6 27
6 29
6 31
6 32
6 38
6 40
6 43
6 44
6 45
6 49
7 10
7 12
7 13
7 14
7 16
7 18
7 19
7 20
7 22
7 23
7 29
7 34
7 35
7 39
7 40
7 46
7 47
7 48
8 12
8 13
8 15
8 17
8 19
8 20
8 23
8 29
8 30
8 31
8 32
8 34
8 36
8 44
8 45
8 48
8 49
9 11
9 14
9 17
9 18
9 19
9 22
9 23
9 25
9 29
9 30
9 32
9 34
9 36
9 37
9 38
9 40
9 41
9 42
9 43
9 45
9 47
10 11
10 12
10 13
10 14
10 17
10 19
10 20
10 21
10 24
10 25
10 27
10 31
10 32
10 35
10 36
10 37
10 38
10 40
10 41
10 42
10 43
10 44
10 45
10 46
10 48
11 12
11 13
11 15
11 16
11 20
11 24
11 27
11 28
11 29
11 30
11 31
11 34
11 35
11 37
11 41
11 45
11 46
11 47
11 49
12 13
12 15
12 17
12 18
12 24
12 26
12 27
12 28
12 29
12 30
12 31
12 32
12 33
12 34
12 35
12 38
12 40
12 42
12 44
12 45
12 46
12 47
12 48
13 14
13 18
13 20
13 23
13 26
13 28
13 29
13 31
13 35
13 36
13 38
13 40
13 44
13 46
13 47
13 49
14 18
14 20
14 22
14 25
14 28
14 29
14 30
14 31
14 32
14 36
14 42
14 44
14 45
14 46
14 48
15 19
15 21
15 22
15 27
15 28
15 30
15 32
15 34
15 37
15 40
15 43
15 45
15 46
15 49
16 18
16 22
16 24
16 28
16 29
16 31
16 38
16 39
16 41
16 43
16 44
16 45
16 47
16 48
16 49
17 20
17 23
17 25
17 28
17 30
17 31
17 33
17 34
17 37
17 38
17 39
17 40
17 41
17 42
17 43
17 44
17 45
18 19
18 21
18 23
18 24
18 25
18 26
18 28
18 30
18 31
18 33
18 34
18 35
18 39
18 41
18 47
18 48
18 49
19 22
19 24
19 28
19 29
19 30
19 31
19 32
19 34
19 35
19 38
19 42
19 43
20 21
20 22
20 23
20 24
20 25
20 26
20 27
20 29
20 31
20 32
20 35
20 38
20 39
20 40
20 41
20 44
20 45
20 46
20 47
21 23
21 24
21 27
21 28
21 29
21 30
21 31
21 32
21 34
21 35
21 36
21 40
21 42
21 43
21 45
21 46
21 49
22 24
22 25
22 26
22 27
22 28
22 29
22 31
22 32
22 34
22 35
22 37
22 38
22 40
22 43
22 44
22 45
22 49
23 25
23 30
23 33
23 35
23 36
23 37
23 41
23 42
23 44
23 46
23 49
24 26
24 27
24 28
24 29
24 31
24 32
24 34
24 41
24 45
24 47
24 48
25 28
25 30
25 32
25 33
25 36
25 38
25 40
25 42
25 43
25 47
25 48
26 27
26 28
26 29
26 33
26 36
26 38
26 41
26 43
26 44
26 49
27 28
27 29
27 31
27 34
27 36
27 38
27 40
27 45
27 48
28 29
28 30
28 35
28 36
28 37
28 40
28 42
28 43
28 44
28 46
29 37
29 38
29 39
29 40
29 42
29 45
30 31
30 33
30 35
30 42
30 43
30 44
30 45
30 47
30 48
31 32
31 33
31 38
31 39
31 40
31 42
31 45
31 47
32 34
32 35
32 36
32 39
32 40
32 43
32 47
33 34
33 36
33 37
33 39
33 40
33 43
33 47
33 48
34 35
34 37
34 39
34 41
34 42
34 43
34 44
34 45
34 49
35 37
35 38
35 39
35 41
35 44
35 46
35 49
36 37
36 39
36 43
36 46
36 47
36 48
37 39
37 41
37 44
37 46
37 48
37 49
38 39
38 40
38 46
38 47
38 48
39 41
40 42
40 43
40 44
41 44
41 47
41 48
42 47
42 48
42 49
43 45
43 46
43 49
44 46
44 48
44 49
45 46
45 49
46 48
46 49
47 48
47 49
